Traveling Salesman Problem/TSP_generados/Aleatorio1621103308_9.tsp
NAME: Aleatorio1621103308_9.tsp
COMMENT: Randomly generated scenario
TYPE: TSP
DIMENSION: 9
EDGE_WEIGHT_TYPE: ATT
NODE_COORD_SECTION
1 30.69 43.01
2 9.49 24.78
3 33.47 25.5
4 24.57 34.81
5 9.79 9.54
6 3.54 44.07
7 34.46 48.77
8 20.77 7.29
9 29.2 44.96
