Traveling Salesman Problem/TSP_generados/Aleatorio1621103308_9.opt.tour
NAME: Aleatorio1621103308_9.opt.tour
COMMENT: Optimal solution for Aleatorio1621103308_9 (131.00523547389938)
TYPE: TOUR
DIMENSION: 9
TOUR_SECTION
1 4 3 8 5 2 6 9 7
-1
EOF
